100
128
36
15
61
16
62
64
29
38
22
14
53
49
24
54
50
25
25
16
46
42
34
51
12
33
39
33
45
43
40
27
31
64
32
40
17
16
3
52
22
56
36
36
40
34
58
39
23
31
28
64
28
36
61
59
23
36
61
49
64
46
30
3
47
31
15
62
31
41
38
25
55
28
23
34
24
22
36
59
32
64
63
29
51
22
25
7
34
56
50
35
43
62
27
52
42
36
35
34
64
63